(set-option :produce-models true)
(set-logic QF_LRA)
(set-info :notes | Strip-packing problem.|)
(declare-fun x0 () Real)
(declare-fun y0 () Real)
(declare-fun x1 () Real)
(declare-fun y1 () Real)
(declare-fun x2 () Real)
(declare-fun y2 () Real)
(declare-fun x3 () Real)
(declare-fun y3 () Real)
(declare-fun x4 () Real)
(declare-fun y4 () Real)
(declare-fun x5 () Real)
(declare-fun y5 () Real)
(declare-fun x6 () Real)
(declare-fun y6 () Real)
(declare-fun x7 () Real)
(declare-fun y7 () Real)
(declare-fun x8 () Real)
(declare-fun y8 () Real)
(declare-fun x9 () Real)
(declare-fun y9 () Real)
(declare-fun x10 () Real)
(declare-fun y10 () Real)
(declare-fun x11 () Real)
(declare-fun y11 () Real)
(declare-fun z () Real)
(declare-fun c () Real)
(assert (and (= c z) (and (>= x0 0) 
(and (>= y0 0) 
(and (>= x1 0) 
(and (>= y1 0) 
(and (>= x2 0) 
(and (>= y2 0) 
(and (>= x3 0) 
(and (>= y3 0) 
(and (>= x4 0) 
(and (>= y4 0) 
(and (>= x5 0) 
(and (>= y5 0) 
(and (>= x6 0) 
(and (>= y6 0) 
(and (>= x7 0) 
(and (>= y7 0) 
(and (>= x8 0) 
(and (>= y8 0) 
(and (>= x9 0) 
(and (>= y9 0) 
(and (>= x10 0) 
(and (>= y10 0) 
(and (>= x11 0) 
(and (>= y11 0) 
(and (>= z 0) 
(and (>= c 0) 
(and (<= (+ x0 0.1575966322) z) 
(and (<= 0.9813956997 y0) 
(and (<= y0 1.73205080757) 
(and (<= x0 (- 4.2015889623 0.1575966322)) 
(and (>= x0 0) 
(and (<= (+ x1 0.3335895289) z) 
(and (<= 0.8573996471 y1) 
(and (<= y1 1.73205080757) 
(and (<= x1 (- 4.2015889623 0.3335895289)) 
(and (>= x1 0) 
(and (<= (+ x2 0.9891395569) z) 
(and (<= 0.6252455079 y2) 
(and (<= y2 1.73205080757) 
(and (<= x2 (- 4.2015889623 0.9891395569)) 
(and (>= x2 0) 
(and (<= (+ x3 0.6630004072) z) 
(and (<= 0.5953857169 y3) 
(and (<= y3 1.73205080757) 
(and (<= x3 (- 4.2015889623 0.6630004072)) 
(and (>= x3 0) 
(and (<= (+ x4 0.8546972053) z) 
(and (<= 0.5599452081 y4) 
(and (<= y4 1.73205080757) 
(and (<= x4 (- 4.2015889623 0.8546972053)) 
(and (>= x4 0) 
(and (<= (+ x5 0.309407347) z) 
(and (<= 0.3985429613 y5) 
(and (<= y5 1.73205080757) 
(and (<= x5 (- 4.2015889623 0.309407347)) 
(and (>= x5 0) 
(and (<= (+ x6 0.5254293213) z) 
(and (<= 0.3425274973 y6) 
(and (<= y6 1.73205080757) 
(and (<= x6 (- 4.2015889623 0.5254293213)) 
(and (>= x6 0) 
(and (<= (+ x7 0.4418099522) z) 
(and (<= 0.3386789141 y7) 
(and (<= y7 1.73205080757) 
(and (<= x7 (- 4.2015889623 0.4418099522)) 
(and (>= x7 0) 
(and (<= (+ x8 0.9253903664) z) 
(and (<= 0.3130544959 y8) 
(and (<= y8 1.73205080757) 
(and (<= x8 (- 4.2015889623 0.9253903664)) 
(and (>= x8 0) 
(and (<= (+ x9 0.7259518605) z) 
(and (<= 0.1896519478 y9) 
(and (<= y9 1.73205080757) 
(and (<= x9 (- 4.2015889623 0.7259518605)) 
(and (>= x9 0) 
(and (<= (+ x10 0.9411756726) z) 
(and (<= 0.1811798722 y10) 
(and (<= y10 1.73205080757) 
(and (<= x10 (- 4.2015889623 0.9411756726)) 
(and (>= x10 0) 
(and (<= (+ x11 0.8377326776) z) 
(and (<= 0.0940270185 y11) 
(and (<= y11 1.73205080757) 
(and (<= x11 (- 4.2015889623 0.8377326776)) 
(and (>= x11 0) 
(and (<= c 4.2015889623) 
(and (or (<= (+ x0 0.1575966322) x1) (or (<= (+ x1 0.3335895289) x0) (or (>= (- y0 0.9813956997) y1) (or (>= (- y1 0.8573996471) y0))))) 
(and (or (<= (+ x0 0.1575966322) x2) (or (<= (+ x2 0.9891395569) x0) (or (>= (- y0 0.9813956997) y2) (or (>= (- y2 0.6252455079) y0))))) 
(and (or (<= (+ x0 0.1575966322) x3) (or (<= (+ x3 0.6630004072) x0) (or (>= (- y0 0.9813956997) y3) (or (>= (- y3 0.5953857169) y0))))) 
(and (or (<= (+ x0 0.1575966322) x4) (or (<= (+ x4 0.8546972053) x0) (or (>= (- y0 0.9813956997) y4) (or (>= (- y4 0.5599452081) y0))))) 
(and (or (<= (+ x0 0.1575966322) x5) (or (<= (+ x5 0.309407347) x0) (or (>= (- y0 0.9813956997) y5) (or (>= (- y5 0.3985429613) y0))))) 
(and (or (<= (+ x0 0.1575966322) x6) (or (<= (+ x6 0.5254293213) x0) (or (>= (- y0 0.9813956997) y6) (or (>= (- y6 0.3425274973) y0))))) 
(and (or (<= (+ x0 0.1575966322) x7) (or (<= (+ x7 0.4418099522) x0) (or (>= (- y0 0.9813956997) y7) (or (>= (- y7 0.3386789141) y0))))) 
(and (or (<= (+ x0 0.1575966322) x8) (or (<= (+ x8 0.9253903664) x0) (or (>= (- y0 0.9813956997) y8) (or (>= (- y8 0.3130544959) y0))))) 
(and (or (<= (+ x0 0.1575966322) x9) (or (<= (+ x9 0.7259518605) x0) (or (>= (- y0 0.9813956997) y9) (or (>= (- y9 0.1896519478) y0))))) 
(and (or (<= (+ x0 0.1575966322) x10) (or (<= (+ x10 0.9411756726) x0) (or (>= (- y0 0.9813956997) y10) (or (>= (- y10 0.1811798722) y0))))) 
(and (or (<= (+ x0 0.1575966322) x11) (or (<= (+ x11 0.8377326776) x0) (or (>= (- y0 0.9813956997) y11) (or (>= (- y11 0.0940270185) y0))))) 
(and (or (<= (+ x1 0.3335895289) x2) (or (<= (+ x2 0.9891395569) x1) (or (>= (- y1 0.8573996471) y2) (or (>= (- y2 0.6252455079) y1))))) 
(and (or (<= (+ x1 0.3335895289) x3) (or (<= (+ x3 0.6630004072) x1) (or (>= (- y1 0.8573996471) y3) (or (>= (- y3 0.5953857169) y1))))) 
(and (or (<= (+ x1 0.3335895289) x4) (or (<= (+ x4 0.8546972053) x1) (or (>= (- y1 0.8573996471) y4) (or (>= (- y4 0.5599452081) y1))))) 
(and (or (<= (+ x1 0.3335895289) x5) (or (<= (+ x5 0.309407347) x1) (or (>= (- y1 0.8573996471) y5) (or (>= (- y5 0.3985429613) y1))))) 
(and (or (<= (+ x1 0.3335895289) x6) (or (<= (+ x6 0.5254293213) x1) (or (>= (- y1 0.8573996471) y6) (or (>= (- y6 0.3425274973) y1))))) 
(and (or (<= (+ x1 0.3335895289) x7) (or (<= (+ x7 0.4418099522) x1) (or (>= (- y1 0.8573996471) y7) (or (>= (- y7 0.3386789141) y1))))) 
(and (or (<= (+ x1 0.3335895289) x8) (or (<= (+ x8 0.9253903664) x1) (or (>= (- y1 0.8573996471) y8) (or (>= (- y8 0.3130544959) y1))))) 
(and (or (<= (+ x1 0.3335895289) x9) (or (<= (+ x9 0.7259518605) x1) (or (>= (- y1 0.8573996471) y9) (or (>= (- y9 0.1896519478) y1))))) 
(and (or (<= (+ x1 0.3335895289) x10) (or (<= (+ x10 0.9411756726) x1) (or (>= (- y1 0.8573996471) y10) (or (>= (- y10 0.1811798722) y1))))) 
(and (or (<= (+ x1 0.3335895289) x11) (or (<= (+ x11 0.8377326776) x1) (or (>= (- y1 0.8573996471) y11) (or (>= (- y11 0.0940270185) y1))))) 
(and (or (<= (+ x2 0.9891395569) x3) (or (<= (+ x3 0.6630004072) x2) (or (>= (- y2 0.6252455079) y3) (or (>= (- y3 0.5953857169) y2))))) 
(and (or (<= (+ x2 0.9891395569) x4) (or (<= (+ x4 0.8546972053) x2) (or (>= (- y2 0.6252455079) y4) (or (>= (- y4 0.5599452081) y2))))) 
(and (or (<= (+ x2 0.9891395569) x5) (or (<= (+ x5 0.309407347) x2) (or (>= (- y2 0.6252455079) y5) (or (>= (- y5 0.3985429613) y2))))) 
(and (or (<= (+ x2 0.9891395569) x6) (or (<= (+ x6 0.5254293213) x2) (or (>= (- y2 0.6252455079) y6) (or (>= (- y6 0.3425274973) y2))))) 
(and (or (<= (+ x2 0.9891395569) x7) (or (<= (+ x7 0.4418099522) x2) (or (>= (- y2 0.6252455079) y7) (or (>= (- y7 0.3386789141) y2))))) 
(and (or (<= (+ x2 0.9891395569) x8) (or (<= (+ x8 0.9253903664) x2) (or (>= (- y2 0.6252455079) y8) (or (>= (- y8 0.3130544959) y2))))) 
(and (or (<= (+ x2 0.9891395569) x9) (or (<= (+ x9 0.7259518605) x2) (or (>= (- y2 0.6252455079) y9) (or (>= (- y9 0.1896519478) y2))))) 
(and (or (<= (+ x2 0.9891395569) x10) (or (<= (+ x10 0.9411756726) x2) (or (>= (- y2 0.6252455079) y10) (or (>= (- y10 0.1811798722) y2))))) 
(and (or (<= (+ x2 0.9891395569) x11) (or (<= (+ x11 0.8377326776) x2) (or (>= (- y2 0.6252455079) y11) (or (>= (- y11 0.0940270185) y2))))) 
(and (or (<= (+ x3 0.6630004072) x4) (or (<= (+ x4 0.8546972053) x3) (or (>= (- y3 0.5953857169) y4) (or (>= (- y4 0.5599452081) y3))))) 
(and (or (<= (+ x3 0.6630004072) x5) (or (<= (+ x5 0.309407347) x3) (or (>= (- y3 0.5953857169) y5) (or (>= (- y5 0.3985429613) y3))))) 
(and (or (<= (+ x3 0.6630004072) x6) (or (<= (+ x6 0.5254293213) x3) (or (>= (- y3 0.5953857169) y6) (or (>= (- y6 0.3425274973) y3))))) 
(and (or (<= (+ x3 0.6630004072) x7) (or (<= (+ x7 0.4418099522) x3) (or (>= (- y3 0.5953857169) y7) (or (>= (- y7 0.3386789141) y3))))) 
(and (or (<= (+ x3 0.6630004072) x8) (or (<= (+ x8 0.9253903664) x3) (or (>= (- y3 0.5953857169) y8) (or (>= (- y8 0.3130544959) y3))))) 
(and (or (<= (+ x3 0.6630004072) x9) (or (<= (+ x9 0.7259518605) x3) (or (>= (- y3 0.5953857169) y9) (or (>= (- y9 0.1896519478) y3))))) 
(and (or (<= (+ x3 0.6630004072) x10) (or (<= (+ x10 0.9411756726) x3) (or (>= (- y3 0.5953857169) y10) (or (>= (- y10 0.1811798722) y3))))) 
(and (or (<= (+ x3 0.6630004072) x11) (or (<= (+ x11 0.8377326776) x3) (or (>= (- y3 0.5953857169) y11) (or (>= (- y11 0.0940270185) y3))))) 
(and (or (<= (+ x4 0.8546972053) x5) (or (<= (+ x5 0.309407347) x4) (or (>= (- y4 0.5599452081) y5) (or (>= (- y5 0.3985429613) y4))))) 
(and (or (<= (+ x4 0.8546972053) x6) (or (<= (+ x6 0.5254293213) x4) (or (>= (- y4 0.5599452081) y6) (or (>= (- y6 0.3425274973) y4))))) 
(and (or (<= (+ x4 0.8546972053) x7) (or (<= (+ x7 0.4418099522) x4) (or (>= (- y4 0.5599452081) y7) (or (>= (- y7 0.3386789141) y4))))) 
(and (or (<= (+ x4 0.8546972053) x8) (or (<= (+ x8 0.9253903664) x4) (or (>= (- y4 0.5599452081) y8) (or (>= (- y8 0.3130544959) y4))))) 
(and (or (<= (+ x4 0.8546972053) x9) (or (<= (+ x9 0.7259518605) x4) (or (>= (- y4 0.5599452081) y9) (or (>= (- y9 0.1896519478) y4))))) 
(and (or (<= (+ x4 0.8546972053) x10) (or (<= (+ x10 0.9411756726) x4) (or (>= (- y4 0.5599452081) y10) (or (>= (- y10 0.1811798722) y4))))) 
(and (or (<= (+ x4 0.8546972053) x11) (or (<= (+ x11 0.8377326776) x4) (or (>= (- y4 0.5599452081) y11) (or (>= (- y11 0.0940270185) y4))))) 
(and (or (<= (+ x5 0.309407347) x6) (or (<= (+ x6 0.5254293213) x5) (or (>= (- y5 0.3985429613) y6) (or (>= (- y6 0.3425274973) y5))))) 
(and (or (<= (+ x5 0.309407347) x7) (or (<= (+ x7 0.4418099522) x5) (or (>= (- y5 0.3985429613) y7) (or (>= (- y7 0.3386789141) y5))))) 
(and (or (<= (+ x5 0.309407347) x8) (or (<= (+ x8 0.9253903664) x5) (or (>= (- y5 0.3985429613) y8) (or (>= (- y8 0.3130544959) y5))))) 
(and (or (<= (+ x5 0.309407347) x9) (or (<= (+ x9 0.7259518605) x5) (or (>= (- y5 0.3985429613) y9) (or (>= (- y9 0.1896519478) y5))))) 
(and (or (<= (+ x5 0.309407347) x10) (or (<= (+ x10 0.9411756726) x5) (or (>= (- y5 0.3985429613) y10) (or (>= (- y10 0.1811798722) y5))))) 
(and (or (<= (+ x5 0.309407347) x11) (or (<= (+ x11 0.8377326776) x5) (or (>= (- y5 0.3985429613) y11) (or (>= (- y11 0.0940270185) y5))))) 
(and (or (<= (+ x6 0.5254293213) x7) (or (<= (+ x7 0.4418099522) x6) (or (>= (- y6 0.3425274973) y7) (or (>= (- y7 0.3386789141) y6))))) 
(and (or (<= (+ x6 0.5254293213) x8) (or (<= (+ x8 0.9253903664) x6) (or (>= (- y6 0.3425274973) y8) (or (>= (- y8 0.3130544959) y6))))) 
(and (or (<= (+ x6 0.5254293213) x9) (or (<= (+ x9 0.7259518605) x6) (or (>= (- y6 0.3425274973) y9) (or (>= (- y9 0.1896519478) y6))))) 
(and (or (<= (+ x6 0.5254293213) x10) (or (<= (+ x10 0.9411756726) x6) (or (>= (- y6 0.3425274973) y10) (or (>= (- y10 0.1811798722) y6))))) 
(and (or (<= (+ x6 0.5254293213) x11) (or (<= (+ x11 0.8377326776) x6) (or (>= (- y6 0.3425274973) y11) (or (>= (- y11 0.0940270185) y6))))) 
(and (or (<= (+ x7 0.4418099522) x8) (or (<= (+ x8 0.9253903664) x7) (or (>= (- y7 0.3386789141) y8) (or (>= (- y8 0.3130544959) y7))))) 
(and (or (<= (+ x7 0.4418099522) x9) (or (<= (+ x9 0.7259518605) x7) (or (>= (- y7 0.3386789141) y9) (or (>= (- y9 0.1896519478) y7))))) 
(and (or (<= (+ x7 0.4418099522) x10) (or (<= (+ x10 0.9411756726) x7) (or (>= (- y7 0.3386789141) y10) (or (>= (- y10 0.1811798722) y7))))) 
(and (or (<= (+ x7 0.4418099522) x11) (or (<= (+ x11 0.8377326776) x7) (or (>= (- y7 0.3386789141) y11) (or (>= (- y11 0.0940270185) y7))))) 
(and (or (<= (+ x8 0.9253903664) x9) (or (<= (+ x9 0.7259518605) x8) (or (>= (- y8 0.3130544959) y9) (or (>= (- y9 0.1896519478) y8))))) 
(and (or (<= (+ x8 0.9253903664) x10) (or (<= (+ x10 0.9411756726) x8) (or (>= (- y8 0.3130544959) y10) (or (>= (- y10 0.1811798722) y8))))) 
(and (or (<= (+ x8 0.9253903664) x11) (or (<= (+ x11 0.8377326776) x8) (or (>= (- y8 0.3130544959) y11) (or (>= (- y11 0.0940270185) y8))))) 
(and (or (<= (+ x9 0.7259518605) x10) (or (<= (+ x10 0.9411756726) x9) (or (>= (- y9 0.1896519478) y10) (or (>= (- y10 0.1811798722) y9))))) 
(and (or (<= (+ x9 0.7259518605) x11) (or (<= (+ x11 0.8377326776) x9) (or (>= (- y9 0.1896519478) y11) (or (>= (- y11 0.0940270185) y9))))) 
(and (or (<= (+ x10 0.9411756726) x11) (or (<= (+ x11 0.8377326776) x10) (or (>= (- y10 0.1811798722) y11) (or (>= (- y11 0.0940270185) y10))))) )))))))))))))))))))))))))))))))))))))))))))))))))))))))))))))))))))))))))))))))))))))))))))))))))))))))))))))))))))))))))))))))))))))))))))))))))))))))))))
(minimize c)
(check-sat)
(get-objectives)
(exit)
